set VV := 0 1 2 ;
set VS := 0 1 2 3 4 5 6 7 8 9 ;
param cv := 
0 21
1 10
2 23
;
param cs := 
0 32
1 21
2 40
3 25
4 28
5 37
6 27
7 25
8 21
9 33
;
param bv:	 0 1 2 := 
		0 0 0 13 
		1 0 0 19 
		2 0 0 0 
;
param bs:	 0 1 2 3 4 5 6 7 8 9 := 
		0 0 0 0 22 0 37 0 0 0 28 
		1 0 0 0 0 0 32 40 0 32 0 
		2 0 0 0 0 20 0 0 0 0 0 
		3 22 0 0 0 24 0 0 0 0 0 
		4 0 0 20 24 0 20 25 21 0 22 
		5 37 32 0 0 20 0 0 0 0 0 
		6 0 40 0 0 25 0 0 35 0 0 
		7 0 0 0 0 21 0 35 0 0 0 
		8 0 32 0 0 0 0 0 0 0 29 
		9 28 0 0 0 22 0 0 0 29 0 
;
